119 48 011 1
1
700 113 1
598 114 1
542 115 1
467 116 1
551 117 1
534 118 1
527 119 1
589 108 1
560 109 1
588 110 1
573 111 1
647 112 1
470 113 1
784 114 1
537 115 1
545 116 1
590 117 1
428 118 1
497 119 1
465 108 1
498 109 1
567 110 1
467 111 1
485 112 1
628 113 1
464 114 1
470 115 1
578 116 1
617 117 1
627 118 1
623 119 1
759 108 1
613 109 1
578 110 1
578 111 1
431 112 1
549 113 1
469 114 1
533 115 1
402 116 1
523 117 1
525 118 1
567 119 1
519 108 1
817 109 1
623 110 1
599 111 1
482 112 1
1
1
1
1
1
1
1
1
1
1
1
1
1
1
1
1
1
1
1
1
1
1
1
1
1
1
1
1
1
1
1
1
1
1
1
1
1
1
1
1
1
1
1
1
1
1
1
1
1
1
1
1
1
1
1
1
1
1
1 9 588 21 464 33 758 45 518
1 10 559 22 497 34 612 46 816
1 11 587 23 566 35 577 47 622
1 12 572 24 466 36 577 48 598
1 13 646 25 484 37 430 49 481
1 2 699 14 469 26 627 38 548
1 3 597 15 783 27 463 39 468
1 4 541 16 536 28 469 40 532
1 5 466 17 544 29 577 41 401
1 6 550 18 589 30 616 42 522
1 7 533 19 427 31 626 43 524
1 8 526 20 496 32 622 44 566
